 &projwfc
    outdir='./'
    DeltaE=0.001
 /
