&input
  outdir='./'
  filrc='Si444.fc'
  asr='simple'
  amass(1)=28.085
  fifrq='Si.freq'
  dos=.false.
  q_in_band_form = .true.
  q_in_cryst_coord = .true.
/
  8
  0.000  0.000  0.000 10 ! Gamma
  0.500  0.000  0.000 14 ! X
  0.625  0.250  0.625 1  ! U
  0.375  0.375  0.750 18 ! K
  0.000  0.000  0.000 18 ! Gamma
  0.500  0.500  0.500 5 ! L
  0.500  0.250  0.500 5 ! W
  0.500  0.000  0.500 1 ! X
